0 300980 
1 300156 
2 299018 
3 298502 
4 297076 
5 294626 
6 290624 
7 289256 
8 288918 
9 288410 
10 282380 
11 280714 
12 277918 
13 272968 
14 270998 
15 270318 
16 267074 
17 265008 
18 264994 
19 263758 
20 262624 
21 262386 
22 261898 
23 259322 
24 257340 
25 257266 
26 254950 
27 250062 
28 247704 
29 246136 
30 245756 
31 245450 
32 245110 
33 244932 
34 237802 
35 236662 
36 230704 
37 230704 

